language ESSENCE' 1.0
letting lastdx=98
letting cage be [
[16,2,3,0,0, 0,0, 0,0, 0,0],
[4,1,9,0,0, 0,0, 0,0, 0,0],
[4,11,5,0,0, 0,0, 0,0, 0,0],
[18,1,13,1,12,0,0, 0,0, 0,0],
[19,5,13,4,13,0,0, 0,0, 0,0],
[23,2,12,3,12,4,12,0,0, 0,0],
[38,8,13,8,12,9,12,9,11,8,11],
[28,9,10,10,10,11,10,0,0, 0,0],
[11,14,12,0,0, 0,0, 0,0, 0,0],
[38,5,2,4,2,4,1,5,1,6,1],
[26,10,9,10,8,11,8,12,8,0,0],
[24,11,16,10,16,9,16,0,0, 0,0],
[17,7,11,6,11,0,0, 0,0, 0,0],
[57,13,14,14,14,14,13,15,13,15,12],
[36,7,10,8,10,8,9,7,9,0,0],
[24,5,5,4,5,4,6,0,0, 0,0],
[7,3,14,0,0, 0,0, 0,0, 0,0],
[48,3,5,3,4,2,4,1,4,1,5],
[51,7,1,7,2,7,3,6,3,6,2],
[3,15,15,0,0, 0,0, 0,0, 0,0],
[6,12,11,0,0, 0,0, 0,0, 0,0],
[36,13,4,13,5,13,6,14,6,0,0],
[14,16,16,0,0, 0,0, 0,0, 0,0],
[45,2,5,2,6,3,6,3,7,0,0],
[8,10,15,0,0, 0,0, 0,0, 0,0],
[20,7,4,7,5,7,6,0,0, 0,0],
[13,12,9,11,9,0,0, 0,0, 0,0],
[56,12,6,12,5,12,4,11,4,11,3],
[14,11,1,0,0, 0,0, 0,0, 0,0],
[32,5,11,4,11,3,11,3,10,0,0],
[13,5,8,0,0, 0,0, 0,0, 0,0],
[15,12,16,0,0, 0,0, 0,0, 0,0],
[46,1,15,1,16,2,16,2,15,3,15],
[5,1,1,0,0, 0,0, 0,0, 0,0],
[4,15,6,0,0, 0,0, 0,0, 0,0],
[14,13,13,13,12,12,12,0,0, 0,0],
[12,15,7,0,0, 0,0, 0,0, 0,0],
[42,14,16,15,16,14,15,13,15,13,16],
[32,10,2,11,2,12,2,12,3,13,3],
[9,3,8,3,9,4,9,0,0, 0,0],
[46,4,10,5,10,6,10,6,9,5,9],
[32,14,1,14,2,15,2,0,0, 0,0],
[49,2,10,2,11,1,11,1,10,0,0],
[25,8,2,8,1,0,0, 0,0, 0,0],
[15,2,2,0,0, 0,0, 0,0, 0,0],
[24,16,9,16,8,15,8,0,0, 0,0],
[26,7,12,6,12,5,12,0,0, 0,0],
[25,14,5,14,4,14,3,0,0, 0,0],
[10,8,16,0,0, 0,0, 0,0, 0,0],
[2,5,16,0,0, 0,0, 0,0, 0,0],
[23,16,14,15,14,16,15,0,0, 0,0],
[22,2,7,1,7,1,6,0,0, 0,0],
[20,6,15,7,15,7,16,6,16,0,0],
[40,8,6,9,6,9,5,9,4,0,0],
[16,6,13,0,0, 0,0, 0,0, 0,0],
[15,16,7,0,0, 0,0, 0,0, 0,0],
[22,2,9,2,8,1,8,0,0, 0,0],
[25,2,13,3,13,2,14,1,14,0,0],
[31,16,3,16,4,15,4,15,3,0,0],
[11,4,3,0,0, 0,0, 0,0, 0,0],
[4,6,4,0,0, 0,0, 0,0, 0,0],
[20,1,3,1,2,0,0, 0,0, 0,0],
[1,3,3,0,0, 0,0, 0,0, 0,0],
[2,16,2,0,0, 0,0, 0,0, 0,0],
[15,10,6,0,0, 0,0, 0,0, 0,0],
[9,5,15,0,0, 0,0, 0,0, 0,0],
[32,13,1,12,1,13,2,0,0, 0,0],
[3,12,14,0,0, 0,0, 0,0, 0,0],
[8,13,9,0,0, 0,0, 0,0, 0,0],
[14,2,1,3,1,3,2,0,0, 0,0],
[56,4,16,3,16,4,15,4,14,5,14],
[10,14,8,0,0, 0,0, 0,0, 0,0],
[12,16,12,16,13,0,0, 0,0, 0,0],
[15,7,8,7,7,0,0, 0,0, 0,0],
[22,15,9,14,9,14,10,0,0, 0,0],
[15,8,14,9,14,0,0, 0,0, 0,0],
[15,8,8,0,0, 0,0, 0,0, 0,0],
[16,15,10,15,11,0,0, 0,0, 0,0],
[22,16,5,15,5,16,6,0,0, 0,0],
[38,6,14,7,14,7,13,0,0, 0,0],
[26,16,10,16,11,0,0, 0,0, 0,0],
[29,11,6,11,7,12,7,0,0, 0,0],
[10,4,4,0,0, 0,0, 0,0, 0,0],
[18,4,7,4,8,0,0, 0,0, 0,0],
[22,5,3,5,4,0,0, 0,0, 0,0],
[19,5,6,6,6,6,5,0,0, 0,0],
[4,5,7,0,0, 0,0, 0,0, 0,0],
[16,6,7,6,8,0,0, 0,0, 0,0],
[2,8,3,0,0, 0,0, 0,0, 0,0],
[17,8,4,8,5,0,0, 0,0, 0,0],
[20,8,7,9,7,10,7,0,0, 0,0],
[10,8,15,9,15,0,0, 0,0, 0,0],
[21,9,1,10,1,0,0, 0,0, 0,0],
[33,9,2,9,3,10,3,10,4,10,5],
[29,9,8,9,9,0,0, 0,0, 0,0],
[32,10,14,11,14,11,13,11,12,12,13],
[30,11,15,12,15,0,0, 0,0, 0,0],
[26,13,7,13,8,14,7,0,0, 0,0],
[7,15,1,16,1,0,0, 0,0, 0,0]
]
